Instance name : SB_bar-n100-6
Authors : 
Date : 
Reference 
Solution
Route 1 : 24 74 12 47 62 97 31 30 81 48 1 51 11 80 9 98 25 59 49 61 50 75 27 77 100 99 
Route 2 : 22 72 4 29 54 32 5 82 55 79 15 65 23 7 73 8 57 18 68 44 94 36 45 95 35 14 85 64 10 58 60 33 86 83 
Route 3 : 20 43 93 70 41 16 66 37 91 87 21 42 19 71 6 92 56 13 69 17 67 2 52 46 26 63 76 96 
Route 4 : 38 34 40 90 88 84 28 3 78 39 53 89 
